Copyright (C) 2013-2015, Filipe Brandao
Build (method = -2)
  #dp: 167
  Step-3' Graph: 16 vertices and 71 arcs (0.00s)
  Step-4' Graph: 10 vertices and 59 arcs (0.00s)
  #V4/#V3 = 0.62
  #A4/#A3 = 0.83
Ready! (0.00s)
Optimize a model with 48 rows, 60 columns and 164 nonzeros
Found heuristic solution: objective 43
Presolve removed 48 rows and 60 columns
Presolve time: 0.00s

Explored 0 nodes (0 simplex iterations) in 0.00 seconds
Thread count was 1 (of 4 available processors)

Optimal solution found (tolerance 0.00e+00)
Best objective 4.100000000000e+01, best bound 4.100000000000e+01, gap 0.0%
Preprocessing time: 0.00 seconds
Gurobi run time: 0.00 seconds
Total run time: 0.00 seconds
Objective: 41
Solution:
1 x [i=1]
1 x [i=2]
1 x [i=3]
3 x [i=4]
1 x [i=5]
1 x [i=6]
1 x [i=7]
2 x [i=8]
1 x [i=9]
1 x [i=10]
1 x [i=11]
1 x [i=12]
2 x [i=13]
1 x [i=14]
1 x [i=15]
1 x [i=16]
2 x [i=17]
2 x [i=18]
1 x [i=19]
2 x [i=20]
1 x [i=21]
1 x [i=22, i=38]
1 x [i=23]
1 x [i=24]
1 x [i=25]
1 x [i=26]
1 x [i=27, i=36]
3 x [i=28, i=35]
1 x [i=29, i=34]
1 x [i=29, i=37]
1 x [i=30, i=33]
1 x [i=31, i=32]
